
******************************************************************************
This program contains Ipopt, a library for large-scale nonlinear optimization.
 Ipopt is released as open source code under the Eclipse Public License (EPL).
         For more information visit http://projects.coin-or.org/Ipopt

This version of Ipopt was compiled from source code available at
    https://github.com/IDAES/Ipopt as part of the Institute for the Design of
    Advanced Energy Systems Process Systems Engineering Framework (IDAES PSE
    Framework) Copyright (c) 2018-2019. See https://github.com/IDAES/idaes-pse.

This version of Ipopt was compiled using HSL, a collection of Fortran codes
    for large-scale scientific computation.  All technical papers, sales and
    publicity material resulting from use of the HSL codes within IPOPT must
    contain the following acknowledgement:
        HSL, a collection of Fortran codes for large-scale scientific
        computation. See http://www.hsl.rl.ac.uk.
******************************************************************************

This is Ipopt version 3.13.2, running with linear solver ma27.

Number of nonzeros in equality constraint Jacobian...:      808
Number of nonzeros in inequality constraint Jacobian.:        0
Number of nonzeros in Lagrangian Hessian.............:      702

Total number of variables............................:      351
                     variables with only lower bounds:      108
                variables with lower and upper bounds:      189
                     variables with only upper bounds:        0
Total number of equality constraints.................:      350
Total number of inequality constraints...............:        0
        inequality constraints with only lower bounds:        0
   inequality constraints with lower and upper bounds:        0
        inequality constraints with only upper bounds:        0

iter    objective    inf_pr   inf_du lg(mu)  ||d||  lg(rg) alpha_du alpha_pr  ls
   0  0.0000000e+00 4.53e-01 8.88e-16  -1.0 0.00e+00    -  0.00e+00 0.00e+00   0
   1  3.2653461e+00 3.72e+00 6.23e+04  -1.0 2.60e+05    -  3.79e-01 4.25e-01h  1
   2  4.5239923e+00 3.17e+00 5.47e+04  -1.0 1.72e+05    -  7.85e-01 1.17e-01h  1
   3  4.6980528e+00 3.12e+00 5.38e+04  -1.0 2.07e+05    -  7.99e-01 1.61e-02h  1
   4  2.5972026e+01 3.25e-01 3.04e+04  -1.0 2.08e+05    -  8.06e-01 9.90e-01h  1
   5  3.0350926e+01 8.37e-03 4.17e+03  -1.0 2.75e+04    -  9.66e-01 9.90e-01h  1
   6  3.0450065e+01 1.70e-04 4.39e+01  -1.0 6.02e+02    -  9.90e-01 9.90e-01h  1
   7  3.0450381e+01 1.69e-04 1.97e+07  -1.0 5.41e+02    -  9.90e-01 7.73e-03f  8
   8  3.0454001e+01 1.64e-04 3.85e+07  -1.0 1.57e+03    -  9.93e-01 3.09e-02f  6
   9  3.0568572e+01 7.56e-05 5.93e+05  -1.0 1.56e+03    -  1.00e+00 9.90e-01H  1
iter    objective    inf_pr   inf_du lg(mu)  ||d||  lg(rg) alpha_du alpha_pr  ls
  10  3.0569115e+01 8.15e-07 2.08e+07  -1.0 7.25e+00    -  1.00e+00 9.90e-01h  1
  11  3.0569116e+01 8.15e-09 2.08e+09  -1.0 2.11e-02    -  1.00e+00 9.90e-01h  1
  12  3.0569116e+01 8.19e-11 2.08e+11  -1.0 2.11e-04    -  1.00e+00 9.90e-01h  1
In iteration 12, 27 Slacks too small, adjusting variable bounds
  13  3.0569116e+01 6.33e-11 2.08e+13  -1.0 7.58e-05    -  1.00e+00 9.90e-01h  1
  14  3.0569116e+01 3.09e-11 1.17e-01  -1.0 5.82e-05    -  1.00e+00 1.00e+00h  1
  15  3.0569113e+01 3.70e-11 2.12e+13  -9.0 1.90e+03    -  9.98e-01 2.56e-05f 16
  16  3.0569109e+01 1.90e-11 2.12e+13  -9.0 1.60e+03    -  9.99e-01 3.04e-05f 16
  17  3.0569095e+01 1.39e-11 2.12e+13  -9.0 1.59e+03    -  1.00e+00 1.22e-04f 14
  18  3.0569091e+01 1.51e-11 2.12e+13  -9.0 1.59e+03    -  1.00e+00 3.05e-05f 16
  19  3.0569077e+01 2.74e-11 2.12e+13  -9.0 1.59e+03    -  1.00e+00 1.22e-04f 14
iter    objective    inf_pr   inf_du lg(mu)  ||d||  lg(rg) alpha_du alpha_pr  ls
  20  3.0451071e+01 9.63e-04 1.92e+07  -9.0 1.59e+03    -  1.00e+00 1.00e+00f  1
  21  3.0449877e+01 1.30e-08 3.91e-04  -9.0 1.52e+01    -  1.00e+00 1.00e+00h  1
  22  3.0449877e+01 2.40e-11 5.17e-11  -9.0 2.71e-04    -  1.00e+00 1.00e+00h  1

Number of Iterations....: 22

                                   (scaled)                 (unscaled)
Objective...............:   3.0449877243446920e+01    3.0449877243446920e+01
Dual infeasibility......:   5.1708388291873363e-11    5.1708388291873363e-11
Constraint violation....:   2.3987367647748670e-11    2.3987367647748670e-11
Complementarity.........:   9.0909090910146982e-10    9.0909090910146982e-10
Overall NLP error.......:   2.3987367647748670e-11    9.0909090910146982e-10


Number of objective function evaluations             = 129
Number of objective gradient evaluations             = 23
Number of equality constraint evaluations            = 129
Number of inequality constraint evaluations          = 0
Number of equality constraint Jacobian evaluations   = 23
Number of inequality constraint Jacobian evaluations = 0
Number of Lagrangian Hessian evaluations             = 22
Total CPU secs in IPOPT (w/o function evaluations)   =      0.051
Total CPU secs in NLP function evaluations           =      1.009

EXIT: Optimal Solution Found.
